DIMENSION: 13
1 1150 4000
2 1050 2750
3 1150 2250
4 1250 2050
5 1350 2350
6 1050 1550
7 226.42 186.15
8 226.42 207.15
9 226.42 235.65
10 226.42 264.15
11 226.42 292.65
12 226.42 314.15
13 226.42 335.65
